
Gurobi 10.0.1 (linux64) logging started Mon 14 Aug 2023 08:10:39 AM CDT

Set parameter LogFile to value "/home/dlcole3/graph_abstraction/plasmoexamples/SHP_serial/SHP_reserve_requirements/gurobi_logs/logfile24.log"
Set parameter NodefileStart to value 0.0005
Set parameter TimeLimit to value 36000
Gurobi Optimizer version 10.0.1 build v10.0.1rc0 (linux64)

CPU model: Intel(R) Xeon(R) CPU E5-2698 v4 @ 2.20GHz, instruction set [SSE2|AVX|AVX2]
Thread count: 40 physical cores, 80 logical processors, using up to 8 threads


Warning: excessive time spent in model updates.
Consider calling update less frequently.

Optimize a model with 1105538 rows, 641709 columns and 4644125 nonzeros
Model fingerprint: 0x28c22b18
Variable types: 599982 continuous, 41727 integer (41727 binary)
Coefficient statistics:
  Matrix range     [5e-02, 2e+04]
  Objective range  [2e-01, 8e+04]
  Bounds range     [5e-02, 2e+04]
  RHS range        [2e-22, 7e+03]
Presolve removed 269389 rows and 124200 columns (presolve time = 5s) ...
Presolve removed 277128 rows and 125045 columns (presolve time = 10s) ...
Presolve removed 279168 rows and 127998 columns (presolve time = 15s) ...
Presolve removed 287620 rows and 132596 columns (presolve time = 20s) ...
Presolve removed 291014 rows and 132769 columns (presolve time = 25s) ...
Presolve removed 291872 rows and 133403 columns (presolve time = 30s) ...
Presolve removed 291912 rows and 133443 columns (presolve time = 35s) ...
Presolve removed 292212 rows and 133463 columns (presolve time = 40s) ...
Sparsify removed 153216 nonzeros (4%)
Presolve removed 292212 rows and 132252 columns
Presolve time: 41.14s
Presolved: 813326 rows, 509457 columns, 3922331 nonzeros
Variable types: 475869 continuous, 33588 integer (33538 binary)

Deterministic concurrent LP optimizer: primal simplex, dual simplex, and barrier
Showing barrier log only...

Root barrier log...

Elapsed ordering time = 5s
Elapsed ordering time = 16s
Elapsed ordering time = 20s
Elapsed ordering time = 25s
Elapsed ordering time = 29s
Elapsed ordering time = 30s
Elapsed ordering time = 35s
Elapsed ordering time = 42s
Elapsed ordering time = 45s
Elapsed ordering time = 50s
Elapsed ordering time = 55s
Elapsed ordering time = 60s
Elapsed ordering time = 65s
Ordering time: 66.22s

Barrier statistics:
 Dense cols : 150
 AA' NZ     : 2.321e+07
 Factor NZ  : 3.590e+08 (roughly 3.4 GB of memory)
 Factor Ops : 1.711e+12 (roughly 14 seconds per iteration)
 Threads    : 5

                  Objective                Residual
Iter       Primal          Dual         Primal    Dual     Compl     Time
   0  -2.11915617e+11 -1.80448818e+13  1.24e+04 2.12e+04  1.16e+08   133s
   1  -1.66267987e+11 -1.57935309e+13  1.02e+04 1.62e+07  9.15e+07   144s
   2  -1.19637897e+11 -1.39315416e+13  7.45e+03 1.03e+07  6.68e+07   158s
   3  -7.68379703e+10 -1.27696327e+13  5.09e+03 8.63e+06  4.79e+07   172s
   4  -4.64608256e+10 -6.28207635e+12  3.24e+03 4.94e+03  2.51e+07   187s
   5  -8.20491464e+09 -2.78999236e+12  8.36e+02 1.31e+01  6.68e+06   203s
   6   2.13444400e+09 -1.13392567e+12  2.08e+02 1.43e-01  1.75e+06   219s
   7   4.60521360e+09 -3.81377665e+11  7.24e+01 2.98e-01  4.89e+05   235s
   8   5.09676737e+09 -1.36914657e+11  1.72e+01 6.16e-02  1.25e+05   253s
   9   3.36514975e+09 -4.78681927e+10  4.31e+00 2.17e-02  3.61e+04   270s
  10   1.40098123e+09 -1.73843578e+10  1.41e+00 7.86e-03  1.21e+04   289s
  11   3.58120842e+08 -2.89330591e+09  2.86e-01 7.07e-04  1.98e+03   306s
  12   8.25844157e+07 -3.83240528e+08  2.28e-04 1.29e-04  2.74e+02   324s
  13   6.51955438e+07 -1.12239636e+08  1.08e-05 1.18e-04  1.04e+02   344s
  14   5.74465605e+07 -5.45128650e+06  2.01e-06 3.89e-05  3.70e+01   366s
  15   5.33183861e+07  2.09435720e+07  1.03e-06 1.90e-05  1.90e+01   385s
  16   5.03992898e+07  3.38506530e+07  8.66e-07 8.44e-06  9.73e+00   404s
  17   4.78103604e+07  4.13556581e+07  5.85e-07 2.56e-06  3.79e+00   421s
  18   4.69521514e+07  4.31894770e+07  4.51e-07 1.50e-06  2.21e+00   438s
  19   4.65680890e+07  4.36062484e+07  3.81e-07 1.20e-06  1.74e+00   454s
  20   4.65213314e+07  4.38048301e+07  3.66e-07 1.06e-06  1.60e+00   470s
  21   4.62153335e+07  4.40237075e+07  2.74e-07 9.01e-07  1.29e+00   484s
  22   4.60993308e+07  4.43714253e+07  2.43e-07 6.61e-07  1.02e+00   499s
  23   4.59790944e+07  4.45314876e+07  2.07e-07 5.45e-07  8.51e-01   514s
  24   4.57484120e+07  4.47359390e+07  1.55e-07 3.88e-07  5.95e-01   529s
  25   4.56600737e+07  4.49209888e+07  1.34e-07 2.56e-07  4.34e-01   545s
  26   4.56338564e+07  4.50261964e+07  1.26e-07 1.79e-07  3.57e-01   561s
  27   4.55119726e+07  4.51104378e+07  9.05e-08 1.13e-07  2.36e-01   577s
  28   4.53766781e+07  4.51543471e+07  5.71e-08 7.82e-08  1.31e-01   592s
  29   4.53092811e+07  4.52208131e+07  1.02e-07 2.55e-08  5.20e-02   611s
  30   4.52893583e+07  4.52418027e+07  2.16e-07 2.16e-08  2.80e-02   634s
  31   4.52672619e+07  4.52514644e+07  1.18e-07 1.79e-08  9.29e-03   659s
  32   4.52609999e+07  4.52555659e+07  8.08e-08 1.31e-08  3.19e-03   682s
  33   4.52585177e+07  4.52568072e+07  5.38e-08 1.98e-08  1.01e-03   700s
  34   4.52574497e+07  4.52570879e+07  1.15e-07 1.69e-08  2.13e-04   718s
  35   4.52572753e+07  4.52572553e+07  1.73e-08 1.39e-08  1.18e-05   735s
  36   4.52572721e+07  4.52572710e+07  2.23e-06 1.93e-08  7.72e-07   750s
  37   4.52572711e+07  4.52572711e+07  5.04e-08 5.40e-08  6.84e-10   763s

Barrier solved model in 37 iterations and 763.41 seconds (682.60 work units)
Optimal objective 4.52572711e+07


Root crossover log...

  325744 DPushes remaining with DInf 0.0000000e+00               765s
  104329 DPushes remaining with DInf 0.0000000e+00               767s
   46826 DPushes remaining with DInf 0.0000000e+00               771s
   13846 DPushes remaining with DInf 0.0000000e+00               775s
       0 DPushes remaining with DInf 0.0000000e+00               781s

   18947 PPushes remaining with PInf 0.0000000e+00               781s
    2949 PPushes remaining with PInf 0.0000000e+00               786s
       0 PPushes remaining with PInf 0.0000000e+00               787s

  Push phase complete: Pinf 0.0000000e+00, Dinf 4.6908176e-07    788s


Root simplex log...

Iteration    Objective       Primal Inf.    Dual Inf.      Time
  149989    4.5257271e+07   0.000000e+00   0.000000e+00    789s
  149989    4.5257271e+07   0.000000e+00   0.000000e+00    790s
Concurrent spin time: 48.59s

Solved with barrier

Root relaxation: objective 4.525727e+07, 149989 iterations, 792.72 seconds (665.35 work units)
Total elapsed time = 847.15s
Total elapsed time = 850.69s

    Nodes    |    Current Node    |     Objective Bounds      |     Work
 Expl Unexpl |  Obj  Depth IntInf | Incumbent    BestBd   Gap | It/Node Time

     0     0 4.5257e+07    0  167          - 4.5257e+07      -     -  860s
H    0     0                    4.547584e+07 4.5257e+07  0.48%     -  872s

Explored 1 nodes (150127 simplex iterations) in 872.19 seconds (726.05 work units)
Thread count was 8 (of 80 available processors)

Solution count 2: 4.54758e+07 4.54758e+07 

Optimal solution found (tolerance 5.00e-02)
Best objective 4.547584119641e+07, best bound 4.525727110862e+07, gap 0.4806%

User-callback calls 76161, time in user-callback 0.25 sec
